c Source: inf-euroroad (2-hop neighborhood of node 499)
c n=25, m=36, circuit_rank=12
c Augmented with 8 edges for Eulerian condition
p sp 25
e 1 3
e 4 23
e 17 22
e 11 12
e 11 15
e 4 9
e 17 19
e 14 15
e 16 17
e 11 17
e 12 13
e 5 8
e 2 10
e 17 21
e 4 11
e 5 20
e 3 4
e 5 25
e 7 23
e 17 18
e 18 19
e 4 5
e 5 6
e 5 7
e 4 24
e 10 11
e 5 11
e 3 11
e 1 2
e 3 5
e 6 8
e 9 11
e 13 14
e 16 20
e 21 22
e 24 25
